(declare-fun alpha1_ack!80 () (_ BitVec 64))
(declare-fun beta_ack!81 () (_ BitVec 64))
(declare-fun mu_ack!82 () (_ BitVec 32))
(declare-fun nu_ack!83 () (_ BitVec 32))
(declare-fun FPCHECK_FADD_ACCURACY ((_ BitVec 64) (_ BitVec 64)) Bool)
(assert (not (fp.lt ((_ to_fp 11 53) alpha1_ack!80)
            ((_ to_fp 11 53) #xbff0000000000000))))
(assert (not (fp.lt ((_ to_fp 11 53) beta_ack!81) ((_ to_fp 11 53) #xbff0000000000000))))
(assert (= #x00000000 mu_ack!82))
(assert (= #x00000000 nu_ack!83))
(assert (FPCHECK_FADD_ACCURACY beta_ack!81 #x4000000000000000))

(check-sat)
(exit)
